NAME : OMNETRUN
COMMENT : 524.61
TYPE : CVRP
DIMENSION : 2
EDGE_WEIGHT_TYPE : EUC_2D
CAPACITY : 2
NODE_COORD_SECTION
1 0.107093 -0.77924
2 96.5346 -1119.68
DEMAND_SECTION
1 0
2 1
DEPOT_SECTION
1
-1
EOF
